[2026-03-23T16:01:24.594Z] Pipeline "set_exp_3_exp_3_n023_c004_g003" → 2026_03_23_16_01_24_set_exp_3_exp_3_n023_c004_g003_max.sol
Set parameter WLSAccessID
Set parameter WLSSecret
Set parameter LicenseID to value 2792458
Set parameter LogFile to value "gurobi.log"
Using license file /root/gurobi.lic
Academic license 2792458 - for non-commercial use only - registered to an___@studenti.unipg.it

Gurobi Optimizer version 13.0.1 build v13.0.1rc0 (linux64 - "Ubuntu 24.04.4 LTS")
Copyright (c) 2026, Gurobi Optimization, LLC

Warning: Duplicate section found (read 'binary') - Is a variable name equal to an LP file format keyword?
Warning: Duplicate section found (read 'binary') - Is a variable name equal to an LP file format keyword?
Warning: Duplicate section found (read 'binary') - Is a variable name equal to an LP file format keyword?
Warning: Duplicate section found (read 'binary') - Is a variable name equal to an LP file format keyword?
Warning: Duplicate section found (read 'binary') - Is a variable name equal to an LP file format keyword?
Warning: Duplicate section found (read 'binary') - Is a variable name equal to an LP file format keyword?
Warning: Duplicate section found (read 'binary') - Is a variable name equal to an LP file format keyword?
Warning: Duplicate section found (read 'binary') - Is a variable name equal to an LP file format keyword?
Warning: Duplicate section found (read 'binary') - Is a variable name equal to an LP file format keyword?
Warning: Duplicate section found (read 'binary') - Is a variable name equal to an LP file format keyword?
Warning: Further warnings of this type will be omitted.
Read LP format model from file /root/bgw/data/uploads/2026_03_23_16_01_24_set_exp_3_exp_3_n023_c004_g003_max.lp
Reading time = 0.01 seconds
: 4085 rows, 379 columns, 12203 nonzeros

Using Gurobi shared library /opt/gurobi1301/linux64/lib/libgurobi.so.13.0.1

CPU model: AMD EPYC-Genoa Processor, instruction set [SSE2|AVX|AVX2|AVX512]
Thread count: 16 physical cores, 16 logical processors, using up to 16 threads

Academic license 2792458 - for non-commercial use only - registered to an___@studenti.unipg.it
Optimize a model with 4085 rows, 379 columns and 12203 nonzeros (Max)
Model fingerprint: 0x4a58af33
Model has 4 linear objective coefficients
Variable types: 27 continuous, 352 integer (352 binary)
Coefficient statistics:
  Matrix range     [1e+00, 2e+01]
  Objective range  [1e+00, 1e+00]
  Bounds range     [1e+00, 1e+00]
  RHS range        [1e+00, 3e+01]

Found heuristic solution: objective 4.0000000
Presolve removed 512 rows and 106 columns
Presolve time: 0.02s
Presolved: 3573 rows, 273 columns, 10899 nonzeros
Variable types: 0 continuous, 273 integer (264 binary)

Root relaxation: objective 1.600000e+01, 210 iterations, 0.01 seconds (0.01 work units)

    Nodes    |    Current Node    |     Objective Bounds      |     Work
 Expl Unexpl |  Obj  Depth IntInf | Incumbent    BestBd   Gap | It/Node Time

     0     0   16.00000    0   21    4.00000   16.00000   300%     -    0s
H    0     0                      11.0000000   16.00000  45.5%     -    0s
H    0     0                      12.0000000   16.00000  33.3%     -    0s
     0     0   16.00000    0   12   12.00000   16.00000  33.3%     -    0s
     0     0   16.00000    0   21   12.00000   16.00000  33.3%     -    0s
     0     0   16.00000    0   13   12.00000   16.00000  33.3%     -    0s
     0     0   16.00000    0   13   12.00000   16.00000  33.3%     -    0s
     0     0   16.00000    0   23   12.00000   16.00000  33.3%     -    0s
     0     0   16.00000    0   21   12.00000   16.00000  33.3%     -    0s
     0     0   16.00000    0   20   12.00000   16.00000  33.3%     -    0s
     0     0   16.00000    0   23   12.00000   16.00000  33.3%     -    0s
     0     0   16.00000    0   20   12.00000   16.00000  33.3%     -    0s
     0     0   15.95238    0   20   12.00000   15.95238  32.9%     -    0s
     0     0   15.85714    0   12   12.00000   15.85714  32.1%     -    0s
     0     0   15.85714    0   12   12.00000   15.85714  32.1%     -    0s
     0     0   15.00000    0   27   12.00000   15.00000  25.0%     -    0s
     0     0   15.00000    0   20   12.00000   15.00000  25.0%     -    0s
     0     0   15.00000    0   20   12.00000   15.00000  25.0%     -    0s
     0     0   15.00000    0   20   12.00000   15.00000  25.0%     -    0s
     0     2   15.00000    0   20   12.00000   15.00000  25.0%     -    0s

Cutting planes:
  Gomory: 1
  Cover: 16
  MIR: 6
  StrongCG: 1
  Inf proof: 26
  Zero half: 2

Explored 1762 nodes (83683 simplex iterations) in 0.97 seconds (1.15 work units)
Thread count was 16 (of 16 available processors)

Solution count 3: 12 11 4 

Optimal solution found (tolerance 1.00e-04)
Best objective 1.200000000000e+01, best bound 1.200000000000e+01, gap 0.0000%

Wrote result file '/root/bgw/data/results/2026_03_23_16_01_24_set_exp_3_exp_3_n023_c004_g003_max.sol'

